15 136
1 2 633
1 3 257
1 4 91
1 5 412
1 6 150
1 7 80
1 8 134
1 9 259
1 10 505
1 11 353
1 12 324
1 13 70
1 14 211
1 15 268
2 3 390
2 4 661
2 5 227
2 6 488
2 7 572
2 8 530
2 9 555
2 10 289
2 11 282
2 12 638
2 13 567
2 14 466
2 15 420
3 4 228
3 5 169
3 6 112
3 7 196
3 8 154
3 9 372
3 10 262
3 11 110
3 12 437
3 13 191
3 14 74
3 15 53
4 5 383
4 6 120
4 7 77
4 8 105
4 9 175
4 10 476
4 11 324
4 12 240
4 13 27
4 14 182
4 15 239
5 6 267
5 7 351
5 8 309
5 9 338
5 10 196
5 11 61
5 12 421
5 13 346
5 14 243
5 15 199
6 7 63
6 8 34
6 9 264
6 10 360
6 11 208
6 12 329
6 13 83
6 14 105
6 15 123
7 8 29
7 9 232
7 10 444
7 11 292
7 12 297
7 13 47
7 14 150
7 15 207
8 9 249
8 10 402
8 11 250
8 12 314
8 13 68
8 14 108
8 15 165
8 16 349
9 10 495
9 11 352
9 12 95
9 13 189
9 14 326
9 15 383
10 11 154
10 12 578
10 13 439
10 14 336
10 15 240
11 12 435
11 13 287
11 14 184
11 15 140
12 13 254
12 14 391
12 15 448
13 14 145
13 15 202
14 15 57
